node_cpu = array1d(1..2,[912, 792]);
node_memory = array1d(1..2,[700, 1494]);
process_memory = array1d(1..4,[398, 297, 20, 134]);
process_links = array2d(1..4,1..4,
    [
        true, true, false, true, 
        true, true, true, false, 
        false, true, true, false, 
        true, false, false, true]);
topology = array2d(1..2,1..2,[true, false, false, true]);
num_processes = 4;
num_nodes = 2;
process_load = array1d(1..4,[279, 133, 546, 440]);
